
-10.52
-10.32
-10.16
-9.84
-9.32
-8.08
-7.0
-5.16
-3.4
-2.04
-1.76
-1.68
-1.52
-1.48
-1.28
-1.28
-1.28
-1.2
-1.12
-1.08
-0.52
-0.52
-0.52
-0.52
-0.44
-0.4
-0.36
-0.32
-0.12
-0.08
-0.08
-0.04
-0.04
-0.04
-0.04